Please solve the following SAT Problem encoded in DIMACS format, provide line of thoughts, write your final answer as a single solution at the end of response with header 'answer: ' : 
p cnf 10 70
-4 3 -5 0
5 3 -9 0
-9 2 1 0
10 9 3 0
10 -9 2 0
10 7 -5 0
8 -4 -1 0
3 -1 4 0
7 -2 1 0
10 1 -9 0
5 -9 2 0
3 10 -5 0
10 -9 1 0
-9 5 1 0
-5 7 -6 0
-4 1 7 0
-6 -3 -8 0
-5 -4 7 0
-8 2 1 0
-4 -2 -9 0
-4 3 9 0
6 10 -9 0
7 2 -9 0
6 8 -2 0
-6 7 -4 0
10 3 1 0
8 -6 -9 0
7 10 2 0
-6 8 10 0
-9 7 3 0
2 1 -9 0
-4 8 1 0
-8 -9 -5 0
7 -9 10 0
-9 8 1 0
-4 -5 2 0
3 10 8 0
-9 1 8 0
-9 3 -1 0
-5 7 -3 0
-4 -9 2 0
8 10 3 0
2 -6 -9 0
10 2 -5 0
-8 -9 3 0
2 -4 1 0
-6 3 -1 0
-6 -5 10 0
3 -8 -6 0
-3 -9 -4 0
-2 -9 3 0
10 2 1 0
-4 -6 -9 0
-5 -4 1 0
2 9 7 0
2 10 -5 0
1 -6 -5 0
-5 -6 10 0
-3 -6 1 0
-4 10 9 0
7 -4 -3 0
1 -4 -9 0
1 -10 -5 0
1 2 3 0
-1 -5 7 0
8 3 -1 0
-5 3 -4 0
-4 8 -9 0
6 -4 3 0
2 10 -7 0

